p cnf 7230 16
-4110 -4144 -5211 5212 0
-4750 -4778 5206 -5209 0
5211 -5213 0
-5207 5209 0
4110 -5213 0
4750 -5207 0
-5212 5213 0
-5206 5207 0
4144 -5213 0
5210 5211 0
4746 -5211 0
-4746 -5210 0
5208 5209 0
4744 -5209 0
-4744 -5208 0
4778 -5207 0
